nodes = 155;
edges = 387;
starts = [1, 1, 1, 2, 2, 2, 3, 3, 3, 3, 4, 4, 5, 5, 5, 6, 6, 6, 6, 7, 7, 7, 8, 9, 9, 9, 9, 10, 10, 10, 11, 11, 11, 12, 12, 12, 13, 13, 14, 14, 14, 15, 16, 16, 17, 17, 17, 18, 18, 18, 19, 20, 20, 20, 21, 21, 22, 22, 22, 23, 23, 24, 24, 24, 24, 25, 25, 25, 26, 27, 28, 28, 28, 29, 30, 30, 30, 31, 32, 32, 33, 33, 33, 34, 34, 34, 35, 35, 36, 36, 36, 37, 37, 37, 38, 38, 39, 39, 39, 40, 40, 40, 41, 42, 42, 43, 43, 43, 44, 44, 45, 45, 45, 46, 46, 47, 47, 48, 48, 48, 49, 49, 49, 50, 50, 51, 51, 52, 52, 52, 53, 53, 53, 54, 54, 55, 55, 55, 56, 56, 56, 56, 57, 57, 57, 58, 58, 59, 59, 59, 60, 60, 61, 61, 61, 61, 62, 62, 62, 63, 63, 64, 64, 64, 65, 65, 65, 65, 66, 66, 66, 67, 67, 67, 67, 68, 68, 68, 69, 69, 69, 70, 70, 70, 70, 71, 71, 71, 72, 72, 73, 73, 73, 73, 74, 74, 75, 76, 76, 76, 77, 78, 78, 78, 78, 79, 80, 80, 80, 81, 81, 81, 82, 82, 82, 83, 83, 83, 84, 84, 84, 85, 85, 85, 86, 87, 87, 88, 89, 89, 90, 91, 91, 91, 92, 92, 92, 93, 93, 94, 94, 94, 95, 95, 95, 95, 96, 96, 97, 97, 97, 98, 99, 99, 100, 101, 101, 102, 102, 103, 104, 104, 105, 105, 106, 106, 106, 107, 107, 107, 108, 108, 108, 109, 109, 109, 110, 110, 111, 111, 111, 112, 112, 112, 112, 113, 113, 114, 114, 114, 115, 115, 115, 116, 116, 116, 116, 117, 118, 118, 118, 119, 119, 119, 120, 120, 120, 121, 121, 121, 122, 122, 122, 123, 123, 124, 124, 124, 125, 126, 126, 127, 127, 127, 128, 128, 128, 129, 129, 129, 130, 130, 130, 131, 131, 131, 132, 132, 133, 133, 133, 134, 134, 135, 135, 136, 137, 137, 137, 138, 138, 139, 139, 140, 140, 141, 141, 141, 142, 143, 144, 145, 145, 145, 146, 147, 147, 147, 147, 148, 149, 149, 149, 150, 150, 150, 151, 151, 152, 152, 152, 152, 153, 153, 153, 154, 155];
ends = [2, 25, 118, 1, 11, 107, 56, 57, 66, 67, 128, 134, 18, 28, 48, 18, 24, 147, 153, 24, 65, 133, 33, 70, 101, 105, 126, 65, 116, 133, 2, 54, 117, 14, 118, 119, 42, 105, 12, 71, 123, 13, 32, 40, 51, 96, 132, 5, 6, 39, 83, 43, 154, 155, 135, 139, 23, 25, 35, 22, 112, 6, 7, 55, 112, 1, 22, 149, 111, 39, 5, 53, 147, 30, 29, 115, 148, 33, 40, 145, 8, 31, 150, 62, 92, 94, 15, 93, 59, 73, 93, 62, 113, 115, 96, 130, 18, 27, 150, 16, 110, 144, 91, 23, 35, 4, 20, 108, 86, 127, 48, 80, 137, 49, 109, 49, 50, 5, 45, 52, 46, 47, 73, 47, 151, 17, 103, 48, 53, 57, 28, 52, 56, 11, 58, 24, 112, 153, 3, 53, 116, 129, 3, 52, 61, 54, 63, 36, 60, 109, 59, 109, 57, 64, 104, 140, 34, 37, 142, 58, 121, 61, 120, 141, 7, 10, 68, 70, 3, 70, 116, 3, 69, 104, 141, 65, 70, 112, 67, 72, 102, 9, 65, 66, 68, 14, 111, 119, 69, 114, 36, 49, 121, 138, 75, 94, 74, 78, 84, 120, 124, 76, 81, 95, 141, 110, 45, 124, 136, 78, 97, 114, 83, 99, 114, 19, 82, 87, 76, 95, 127, 92, 122, 152, 44, 83, 89, 152, 87, 126, 91, 41, 90, 152, 34, 85, 122, 15, 36, 34, 74, 98, 78, 84, 97, 100, 17, 38, 81, 95, 99, 94, 82, 97, 95, 9, 102, 69, 101, 51, 61, 67, 9, 42, 113, 115, 130, 2, 121, 123, 43, 106, 130, 46, 59, 60, 16, 79, 26, 71, 131, 23, 24, 55, 68, 37, 146, 72, 81, 82, 30, 43, 106, 10, 56, 66, 129, 11, 1, 12, 149, 12, 71, 131, 64, 76, 127, 63, 73, 107, 85, 92, 152, 14, 107, 77, 80, 125, 124, 9, 72, 44, 84, 120, 4, 108, 135, 56, 116, 147, 38, 106, 108, 111, 119, 149, 96, 143, 7, 10, 147, 135, 136, 128, 134, 137, 45, 139, 140, 73, 145, 21, 137, 61, 139, 64, 67, 78, 62, 132, 40, 32, 138, 151, 113, 6, 28, 129, 133, 30, 25, 118, 131, 33, 39, 153, 50, 145, 85, 88, 91, 122, 6, 55, 150, 20, 20];
weights = [76, 137, 65, 76, 87, 167, 63, 107, 53, 26, 11, 92, 73, 42, 99, 94, 82, 72, 113, 73, 200, 35, 36, 25, 25, 41, 13, 38, 66, 203, 87, 42, 24, 54, 62, 10, 15, 43, 54, 17, 46, 15, 29, 5, 59, 9, 75, 73, 94, 70, 44, 47, 37, 64, 37, 178, 10, 38, 351, 10, 24, 82, 73, 135, 68, 137, 38, 65, 60, 27, 42, 220, 59, 47, 47, 129, 168, 56, 29, 61, 36, 56, 26, 91, 33, 87, 15, 46, 53, 180, 24, 32, 12, 44, 69, 40, 70, 27, 66, 5, 22, 33, 14, 353, 14, 35, 47, 13, 24, 62, 58, 54, 244, 42, 71, 65, 2, 99, 58, 118, 42, 65, 53, 2, 62, 59, 19, 118, 47, 82, 220, 47, 57, 42, 42, 135, 178, 80, 63, 57, 34, 149, 107, 82, 28, 42, 40, 53, 118, 66, 118, 77, 28, 9, 91, 51, 91, 32, 70, 40, 48, 9, 64, 108, 200, 38, 68, 65, 53, 101, 67, 26, 59, 17, 12, 68, 121, 272, 59, 12, 25, 25, 65, 101, 121, 17, 122, 55, 12, 49, 180, 53, 52, 45, 36, 86, 36, 62, 124, 46, 30, 62, 52, 129, 66, 37, 54, 28, 246, 52, 148, 18, 35, 156, 43, 44, 35, 58, 124, 62, 46, 59, 26, 44, 24, 58, 89, 37, 89, 45, 26, 14, 26, 25, 33, 59, 57, 51, 24, 87, 86, 31, 129, 62, 25, 64, 9, 69, 148, 25, 58, 31, 156, 58, 64, 25, 49, 25, 49, 19, 91, 17, 41, 46, 43, 11, 65, 167, 50, 35, 13, 101, 160, 71, 66, 77, 22, 37, 60, 122, 54, 24, 68, 178, 272, 12, 190, 49, 18, 43, 129, 100, 11, 66, 34, 67, 145, 24, 65, 62, 135, 10, 55, 127, 64, 46, 124, 48, 52, 50, 26, 57, 46, 46, 35, 30, 28, 20, 20, 13, 97, 62, 46, 124, 11, 33, 212, 149, 145, 71, 40, 65, 160, 54, 127, 62, 75, 47, 35, 203, 54, 13, 41, 93, 13, 54, 244, 9, 24, 45, 47, 58, 9, 51, 27, 108, 12, 66, 70, 47, 33, 61, 47, 17, 190, 72, 59, 71, 54, 168, 65, 135, 62, 26, 66, 32, 62, 17, 44, 37, 25, 46, 113, 80, 32, 37, 64];
start = 112;
end= 88;
p = [0, 0, 0, 0, 0, 0, 1121, 0, 0, 0, 0, 0, 0, 0, 0, 0, 0, 0, 0, 0, 0, 0, 0, 0, 0, 1480, 0, 0, 0, 0, 0, 0, 0, 0, 0, 0, 0, 531, 0, 0, 0, 0, 0, 0, 0, 0, 414, 0, 0, 26, 0, 0, 0, 0, 0, 0, 0, 0, 0, 0, 0, 743, 0, 0, 0, 0, 0, 0, 0, 0, 0, 0, 0, 0, 0, 0, 0, 1293, 0, 703, 0, 0, 0, 0, 0, 0, 0, 0, 0, 0, 0, 0, 0, 0, 1123, 0, 0, 0, 814, 724, 0, 0, 0, 0, 0, 0, 0, 0, 0, 0, 0, 0, 0, 0, 0, 0, 0, 0, 0, 0, 0, 0, 0, 0, 0, 0, 0, 0, 0, 0, 0, 0, 0, 0, 0, 0, 0, 0, 812, 0, 0, 0, 0, 0, 0, 0, 0, 0, 0, 0, 0, 0, 986, 0, 1045];
